NAME: pr1002.tour
COMMENT: Best tour for pr1002.tsp (269417.0)
TYPE: TOUR
DIMENSION: 1002
TOUR_SECTION
652
653
644
641
645
646
647
648
651
650
649
622
621
623
624
617
618
619
620
727
729
728
712
723
724
725
726
668
667
663
664
665
666
670
669
671
672
673
719
720
718
717
716
721
722
715
714
713
711
710
708
709
707
706
696
695
694
693
692
691
690
689
688
680
679
678
677
674
675
676
681
687
686
682
685
683
684
988
989
990
984
983
985
986
987
982
980
981
972
971
970
969
973
974
975
976
979
978
977
950
949
951
952
948
947
946
945
944
943
942
941
940
955
956
954
953
993
961
962
963
964
965
966
967
968
701
700
699
698
697
705
704
703
702
765
764
763
1000
759
760
761
762
774
775
773
772
771
770
768
766
767
769
960
959
958
957
939
938
937
936
935
934
933
932
931
930
929
928
926
927
925
924
923
921
922
918
917
916
904
903
905
906
908
907
899
900
901
902
919
920
887
888
886
885
884
883
882
881
880
879
878
876
870
871
872
869
867
868
873
874
875
877
890
889
891
892
893
847
846
845
848
849
850
853
857
854
855
856
864
865
866
863
861
862
860
859
1002
858
852
851
843
844
895
894
896
898
897
842
810
809
1001
806
807
808
798
799
800
805
804
803
802
801
787
794
793
788
786
785
784
782
912
911
910
909
915
914
913
777
776
778
779
780
781
783
758
757
756
789
790
791
792
751
752
753
754
755
747
746
748
750
749
733
734
735
738
744
745
743
742
741
740
739
737
736
730
731
732
616
615
614
613
612
627
628
626
625
992
633
634
635
636
637
638
639
640
373
372
371
370
369
377
376
375
374
437
436
435
997
427
426
425
424
423
422
420
419
418
417
416
414
415
413
412
411
409
408
410
407
406
405
421
404
403
402
288
287
286
285
284
299
300
298
297
991
305
306
307
308
309
310
311
312
313
37
38
39
40
50
41
49
42
43
44
45
46
47
48
84
83
81
80
79
78
82
88
89
77
93
94
95
96
97
98
99
91
92
90
87
86
85
109
108
107
994
105
106
118
119
117
116
115
114
112
110
111
113
304
303
302
301
283
282
281
280
279
278
277
276
275
274
272
273
469
468
467
459
454
584
583
582
581
587
586
585
449
448
450
451
452
453
455
456
457
458
460
465
466
464
463
462
461
428
429
430
431
432
433
434
446
447
445
444
443
442
440
438
439
441
632
631
630
629
611
610
609
608
607
606
605
604
603
795
796
797
601
602
600
598
599
597
596
595
594
593
557
556
558
560
559
592
591
574
590
589
588
576
577
578
575
573
572
571
561
563
562
549
548
550
551
552
553
554
555
825
824
823
822
821
811
812
820
819
818
814
813
841
840
839
838
837
836
834
833
832
831
829
830
835
815
816
817
828
827
826
538
535
533
534
532
531
529
530
524
523
515
516
521
522
525
526
527
528
536
537
539
541
542
543
544
540
545
547
546
564
565
519
518
520
517
567
566
568
570
569
514
579
580
998
478
477
471
472
476
475
474
473
470
480
479
481
482
485
486
490
491
492
484
483
493
494
495
496
497
499
498
500
489
488
487
513
512
511
510
999
509
508
507
502
501
503
506
505
504
210
209
208
207
205
206
204
203
201
200
199
198
197
194
193
192
189
188
239
238
240
242
241
186
187
195
196
202
996
182
183
184
181
180
179
178
177
176
175
174
173
170
171
172
161
160
159
185
158
162
163
167
168
169
166
165
155
164
156
157
154
153
152
151
150
149
143
144
148
147
146
145
142
141
140
139
138
137
132
131
130
129
128
127
125
126
256
255
254
253
995
252
251
243
244
245
246
263
264
231
230
232
233
234
235
236
237
190
191
218
217
212
211
213
216
215
214
220
219
221
222
223
224
225
226
227
228
229
265
266
267
268
269
271
270
260
261
262
247
248
250
249
259
258
257
121
120
122
123
124
104
103
102
101
100
133
134
135
136
76
75
74
1
2
5
3
4
6
8
9
7
70
69
68
72
71
73
54
52
53
51
60
59
58
57
55
56
67
66
65
61
62
64
63
12
11
10
14
13
15
16
17
22
21
18
19
20
26
30
31
25
23
24
32
33
34
35
36
29
27
28
332
333
334
328
327
329
330
331
314
315
316
325
326
324
319
318
317
320
323
322
321
294
293
295
296
289
290
291
292
399
401
400
396
397
398
335
336
337
338
339
340
391
392
390
389
388
386
387
393
394
395
384
383
385
382
380
381
379
378
368
367
366
365
364
363
362
361
360
352
351
350
345
344
341
342
343
346
347
348
349
353
359
358
354
357
355
356
660
661
662
656
655
657
658
659
642
643
654
-1
EOF